100
150
99
98
96
94
93
92
91
91
88
88
87
87
87
86
85
84
83
82
81
79
79
77
75
73
73
73
72
71
69
68
67
66
65
65
64
64
62
62
61
60
60
57
55
55
54
50
50
50
49
48
48
47
45
44
44
44
42
42
39
38
35
35
34
34
34
33
33
32
31
31
29
29
28
26
25
23
21
21
20
19
18
18
16
16
15
14
13
13
11
11
11
10
8
6
6
5
5
4
3
2
